NAME : single
TYPE : ATSP
DIMENSION : 6
EDGE_WEIGHT_TYPE : EXPLICIT
EDGE_WEIGHT_FORMAT : FULL_MATRIX
EDGE_WEIGHT_SECTION
0 1406 1023 395 396 137 
199835 0 403 1028 1010 1268 
199881 403 0 645 627 885 
199882 1028 645 0 99 257 
199882 1010 627 99 0 258 
199897 1268 885 257 258 0 
EOF